SPARKNaCl/why3-z3/sparknacl-hashing-sha256.adb_90_32_index_check2_1.smt2
;; produced by z3_gnatprove.drv ;;
(set-info :smt-lib-version 2.5)
(set-info :source |VC generated by SPARK 2014|)
(set-info :category industrial)
(set-info :status unknown)
;;; generated by SMT-LIB2 driver
;;; SMT-LIB2 driver: bit-vectors, common part
;;; SMT-LIB2: integer arithmetic
(declare-datatypes ()
  ((t__ref (t__refqtmk (t__content (_ BitVec 32))))))

(declare-sort tinteger_32B 0)

;; "tinteger_32B'int"
(declare-fun tinteger_32Bqtint (tinteger_32B) Int)

;; "tinteger_32B'axiom"
(assert
  (forall ((i tinteger_32B))
    (and
      (<= (- 2147483648) (tinteger_32Bqtint i))
      (<= (tinteger_32Bqtint i) 2147483647))))

;; "in_range"
(define-fun in_range ((x Int)) Bool
  (and (<= (- 2147483648) x) (<= x 2147483647)))

;; "to_rep"
(define-fun to_rep ((x tinteger_32B)) Int
  (tinteger_32Bqtint x))

;; "of_rep"
(declare-fun of_rep (Int) tinteger_32B)

;; "inversion_axiom"
(assert
  (forall ((x tinteger_32B))
    (! (= (of_rep (to_rep x)) x) :pattern ((to_rep x)) )))

;; "range_axiom"
(assert
  (forall ((x tinteger_32B))
    (! (in_range (to_rep x)) :pattern ((to_rep x)) )))

;; "coerce_axiom"
(assert
  (forall ((x Int))
    (! (=> (in_range x) (= (to_rep (of_rep x)) x)) :pattern ((to_rep
                                                               (of_rep x))) )))

;; "in_range"
(define-fun in_range1 ((x Int)) Bool
  (and (<= 0 x) (<= x 2147483647)))

(declare-sort byte 0)

;; "to_rep"
(declare-fun to_rep1 (byte) (_ BitVec 8))

;; "of_rep"
(declare-fun of_rep1 ((_ BitVec 8)) byte)

;; "inversion_axiom"
(assert
  (forall ((x byte)) (! (= (of_rep1 (to_rep1 x)) x) :pattern ((to_rep1 x)) )))

;; "range_axiom"
(assert true)

;; "coerce_axiom"
(assert
  (forall ((x (_ BitVec 8)))
    (! (= (to_rep1 (of_rep1 x)) x) :pattern ((to_rep1 (of_rep1 x))) )))

(declare-sort map1 0)

;; "has_bounds"
(declare-fun has_bounds (map1
  Int
  Int) Bool)

;; "get"
(declare-fun get (map1
  Int) byte)

(declare-datatypes ()
  ((t (tqtmk (rec__first tinteger_32B)(rec__last tinteger_32B)))))

;; "dynamic_property"
(define-fun dynamic_property ((range_first Int) (range_last Int) (low Int) (high Int)) Bool
  (and
    (in_range low)
    (and
      (in_range high)
      (=> (<= low high) (and (in_range1 low) (in_range1 high))))))

(declare-datatypes ()
  ((us_t (us_tqtmk (elts map1)(rt t)))))

;; "to_array"
(define-fun to_array ((a us_t)) map1
  (elts a))

;; "first"
(define-fun first ((a us_t)) Int
  (to_rep (rec__first (rt a))))

;; "last"
(define-fun last ((a us_t)) Int
  (to_rep (rec__last (rt a))))

;; "length"
(define-fun length ((a us_t)) Int
  (ite (<= (first a) (last a)) (+ (- (last a) (first a)) 1) 0))

;; "well_formed"
(define-fun well_formed ((a us_t)) Bool
  (has_bounds
    (elts a)
    (to_rep (rec__first (rt a)))
    (to_rep (rec__last (rt a)))))

(declare-const x us_t)

(declare-const i Int)

;; "dynamic_invariant"
(define-fun dynamic_invariant ((temp___expr_326 us_t) (temp___is_init_322 Bool) (temp___skip_constant_323 Bool) (temp___do_toplevel_324 Bool) (temp___do_typ_inv_325 Bool)) Bool
  (and
    (=>
      (not (= temp___skip_constant_323 true))
      (dynamic_property
        0
        2147483647
        (first temp___expr_326)
        (last temp___expr_326)))
    (well_formed temp___expr_326)))

(declare-const w (_ BitVec 32))

;; "w'unused"
(define-fun wqtunused () t__ref
  (t__refqtmk w))

;; "Assume"
(assert (dynamic_invariant x true false true true))

;; "Assume"
(assert (in_range1 i))

;; "Assume"
(assert (and (and (<= 4 (length x)) (<= (first x) i)) (<= i (- (last x) 3))))

;; "Assume"
(assert true)

;; "Assume"
(assert true)

;; "o"
(define-fun o () Int
  (+ i 3))

;; "infix +'result'unused"
(define-fun infix_plqtresultqtunused () Int
  o)

;; "Ensures"
(assert (in_range o))

;; "range_check_'result'unused"
(define-fun range_check_qtresultqtunused () Int
  o)

;; "Assert"
(assert (and (<= (first x) o) (<= o (last x))))

;; "o"
(define-fun o1 () map1
  (to_array x))

;; "to_array'result'unused"
(define-fun to_arrayqtresultqtunused () map1
  o1)

;; "o"
(define-fun o2 () byte
  (get o1 o))

;; "get'result'unused"
(define-fun getqtresultqtunused () byte
  o2)

(declare-const o3 (_ BitVec 8))

;; "Ensures"
(assert (= (to_rep1 o2) o3))

;; "to_rep'result'unused"
(define-fun to_repqtresultqtunused () (_ BitVec 8)
  o3)

;; "o"
(define-fun o4 () (_ BitVec 32)
  ((_ zero_extend 24) o3))

;; "toBig'result'unused"
(define-fun toBigqtresultqtunused () (_ BitVec 32)
  o4)

;; "o"
(define-fun o5 () (_ BitVec 32)
  ((_ int2bv 32) 8))

;; "of_int'result'unused"
(define-fun of_intqtresultqtunused () (_ BitVec 32)
  o5)

;; "o"
(define-fun o6 () Int
  (+ i 2))

;; "infix +'result'unused"
(define-fun infix_plqtresultqtunused1 () Int
  o6)

;; "Ensures"
(assert (in_range o6))

;; "range_check_'result'unused"
(define-fun range_check_qtresultqtunused1 () Int
  o6)

;; "Assert"
(assert (and (<= (first x) o6) (<= o6 (last x))))

;; "o"
(define-fun o7 () map1
  (to_array x))

;; "to_array'result'unused"
(define-fun to_arrayqtresultqtunused1 () map1
  o7)

;; "o"
(define-fun o8 () byte
  (get o7 o6))

;; "get'result'unused"
(define-fun getqtresultqtunused1 () byte
  o8)

(declare-const o9 (_ BitVec 8))

;; "Ensures"
(assert (= (to_rep1 o8) o9))

;; "to_rep'result'unused"
(define-fun to_repqtresultqtunused1 () (_ BitVec 8)
  o9)

;; "o"
(define-fun o10 () (_ BitVec 32)
  ((_ zero_extend 24) o9))

;; "toBig'result'unused"
(define-fun toBigqtresultqtunused1 () (_ BitVec 32)
  o10)

;; "o"
(define-fun o11 () (_ BitVec 32)
  (bvshl o10 o5))

;; "lsl_bv'result'unused"
(define-fun lsl_bvqtresultqtunused () (_ BitVec 32)
  o11)

;; "o"
(define-fun o12 () (_ BitVec 32)
  ((_ int2bv 32) 16))

;; "of_int'result'unused"
(define-fun of_intqtresultqtunused1 () (_ BitVec 32)
  o12)

;; "o"
(define-fun o13 () Int
  (+ i 1))

;; "infix +'result'unused"
(define-fun infix_plqtresultqtunused2 () Int
  o13)

;; "Ensures"
(assert (in_range o13))

;; "range_check_'result'unused"
(define-fun range_check_qtresultqtunused2 () Int
  o13)

;; "Assert"
(assert (and (<= (first x) o13) (<= o13 (last x))))

;; "o"
(define-fun o14 () map1
  (to_array x))

;; "to_array'result'unused"
(define-fun to_arrayqtresultqtunused2 () map1
  o14)

;; "o"
(define-fun o15 () byte
  (get o14 o13))

;; "get'result'unused"
(define-fun getqtresultqtunused2 () byte
  o15)

(declare-const o16 (_ BitVec 8))

;; "Ensures"
(assert (= (to_rep1 o15) o16))

;; "to_rep'result'unused"
(define-fun to_repqtresultqtunused2 () (_ BitVec 8)
  o16)

;; "o"
(define-fun o17 () (_ BitVec 32)
  ((_ zero_extend 24) o16))

;; "toBig'result'unused"
(define-fun toBigqtresultqtunused2 () (_ BitVec 32)
  o17)

;; "o"
(define-fun o18 () (_ BitVec 32)
  (bvshl o17 o12))

;; "lsl_bv'result'unused"
(define-fun lsl_bvqtresultqtunused1 () (_ BitVec 32)
  o18)

;; "o"
(define-fun o19 () (_ BitVec 32)
  ((_ int2bv 32) 24))

;; "of_int'result'unused"
(define-fun of_intqtresultqtunused2 () (_ BitVec 32)
  o19)

;; "temp___785"
(define-fun temp___785 () Int
  i)

;; Goal "def'vc"
;; File "sparknacl-hashing-sha256.adb", line 59, characters 0-0
(assert
  (not (<= temp___785 (last x))))

(check-sat)
